
Log started (V11.0.0) Sat May 17 01:41:13 2008

Tried aggregator 1 time.
Reduced MIP has 510 rows, 5001 columns, and 10010 nonzeros.
Presolve time =    0.03 sec.
Clique table members: 500.
MIP emphasis: balance optimality and feasibility.
MIP search method: dynamic search.
Parallel mode: none, using 1 thread.
Root relaxation solution time =    0.12 sec.

        Nodes                                         Cuts/
   Node  Left     Objective  IInf  Best Integer     Best Node    ItCnt     Gap

*     0+    0                        55098.0000     5078.3000      615   90.78%
*     0+    0                         5108.0000     5078.3000      615    0.58%
      0     0     5079.0000    20     5108.0000      Fract: 7      636    0.57%
      0     0     5079.0000    21     5108.0000     Covers: 1      649    0.57%
      0     0     5079.0000    22     5108.0000     Covers: 1      664    0.57%
*     0+    0                         5095.0000     5079.0000      664    0.31%
      0     2     5079.0000    22     5095.0000     5079.0000      664    0.31%
    100    98     5080.0000    17     5095.0000     5079.0000     2544    0.31%
    200   174     5083.0000    17     5095.0000     5079.0000     8374    0.31%
    300   254     5084.1098    19     5095.0000     5079.0000    14773    0.31%
    400   335     5086.0000    18     5095.0000     5079.0000    20617    0.31%
    500   410     5089.0000    16     5095.0000     5079.0000    30028    0.31%
*   531+  428                         5091.0000     5079.0000    33690    0.24%
*   533+  286                         5083.0000     5079.0000    35508    0.08%
*   533+  190                         5082.0000     5079.0000    35508    0.06%
*   533+  126                         5081.0000     5079.0000    35508    0.04%
    600   149     5079.0000    18     5081.0000     5079.0000    36386    0.04%
    700   135     5079.0000    18     5081.0000     5079.0000    40575    0.04%
    800   206     5080.0000    20     5081.0000     5079.0000    42712    0.04%
    900   264     5080.0000    13     5081.0000     5079.0000    48509    0.04%
   1000   338     5079.0000    16     5081.0000     5079.0000    52424    0.04%
Elapsed time =  28.52 sec. (tree size =  0.53 MB, solutions = 7)
   1100   414     5080.0000    18     5081.0000     5079.0000    54646    0.04%
*  1133+  145                         5080.0000     5079.0000    55965    0.02%
   1200    80    infeasible           5080.0000     5079.0000    74893    0.02%

Cover cuts applied:  43
Mixed integer rounding cuts applied:  2
Gomory fractional cuts applied:  8

Solution pool: 8 solutions saved.

MIP - Integer optimal solution:  Objective = 5.0800000000e+003
Solution time =   44.34 sec.  Iterations = 101762  Nodes = 1281


Incumbent solution
Variable Name           Solution Value
Cmax                       5080.000000
X_1_6                         1.000000
X_2_8                         1.000000
X_3_1                         1.000000
X_4_3                         1.000000
X_5_10                        1.000000
X_6_8                         1.000000
X_7_2                         1.000000
X_8_7                         1.000000
X_9_8                         1.000000
X_10_3                        1.000000
X_11_9                        1.000000
X_12_3                        1.000000
X_13_10                       1.000000
X_14_1                        1.000000
X_15_8                        1.000000
X_16_5                        1.000000
X_17_6                        1.000000
X_18_10                       1.000000
X_19_3                        1.000000
X_20_10                       1.000000
X_21_9                        1.000000
X_22_9                        1.000000
X_23_9                        1.000000
X_24_9                        1.000000
X_25_9                        1.000000
X_26_10                       1.000000
X_27_7                        1.000000
X_28_5                        1.000000
X_29_8                        1.000000
X_30_9                        1.000000
X_31_7                        1.000000
X_32_5                        1.000000
X_33_1                        1.000000
X_34_4                        1.000000
X_35_9                        1.000000
X_36_2                        1.000000
X_37_6                        1.000000
X_38_9                        1.000000
X_39_7                        1.000000
X_40_4                        1.000000
X_41_5                        1.000000
X_42_5                        1.000000
X_43_7                        1.000000
X_44_9                        1.000000
X_45_2                        1.000000
X_46_7                        1.000000
X_47_9                        1.000000
X_48_6                        1.000000
X_49_8                        1.000000
X_50_6                        1.000000
X_51_2                        1.000000
X_52_10                       1.000000
X_53_4                        1.000000
X_54_9                        1.000000
X_55_8                        1.000000
X_56_8                        1.000000
X_57_2                        1.000000
X_58_1                        1.000000
X_59_10                       1.000000
X_60_7                        1.000000
X_61_2                        1.000000
X_62_3                        1.000000
X_63_5                        1.000000
X_64_1                        1.000000
X_65_2                        1.000000
X_66_1                        1.000000
X_67_4                        1.000000
X_68_5                        1.000000
X_69_10                       1.000000
X_70_2                        1.000000
X_71_7                        1.000000
X_72_5                        1.000000
X_73_6                        1.000000
X_74_8                        1.000000
X_75_1                        1.000000
X_76_3                        1.000000
X_77_5                        1.000000
X_78_6                        1.000000
X_79_2                        1.000000
X_80_6                        1.000000
X_81_9                        1.000000
X_82_6                        1.000000
X_83_2                        1.000000
X_84_1                        1.000000
X_85_6                        1.000000
X_86_7                        1.000000
X_87_8                        1.000000
X_88_3                        1.000000
X_89_3                        1.000000
X_90_4                        1.000000
X_91_1                        1.000000
X_92_3                        1.000000
X_93_6                        1.000000
X_94_3                        1.000000
X_95_3                        1.000000
X_96_6                        1.000000
X_97_10                       1.000000
X_98_7                        1.000000
X_99_4                        1.000000
X_100_8                       1.000000
X_101_10                      1.000000
X_102_8                       1.000000
X_103_2                       1.000000
X_104_8                       1.000000
X_105_6                       1.000000
X_106_6                       1.000000
X_107_3                       1.000000
X_108_3                       1.000000
X_109_7                       1.000000
X_110_10                      1.000000
X_111_4                       1.000000
X_112_6                       1.000000
X_113_2                       1.000000
X_114_6                       1.000000
X_115_9                       1.000000
X_116_6                       1.000000
X_117_2                       1.000000
X_118_8                       1.000000
X_119_1                       1.000000
X_120_4                       1.000000
X_121_9                       1.000000
X_122_2                       1.000000
X_123_7                       1.000000
X_124_7                       1.000000
X_125_9                       1.000000
X_126_7                       1.000000
X_127_9                       1.000000
X_128_1                       1.000000
X_129_7                       1.000000
X_130_1                       1.000000
X_131_7                       1.000000
X_132_2                       1.000000
X_133_1                       1.000000
X_134_5                       1.000000
X_135_4                       1.000000
X_136_7                       1.000000
X_137_10                      1.000000
X_138_2                       1.000000
X_139_6                       1.000000
X_140_1                       1.000000
X_141_6                       1.000000
X_142_6                       1.000000
X_143_8                       1.000000
X_144_10                      1.000000
X_145_4                       1.000000
X_146_5                       1.000000
X_147_7                       1.000000
X_148_9                       1.000000
X_149_10                      1.000000
X_150_3                       1.000000
X_151_7                       1.000000
X_152_9                       1.000000
X_153_2                       1.000000
X_154_7                       1.000000
X_155_4                       1.000000
X_156_5                       1.000000
X_157_2                       1.000000
X_158_1                       1.000000
X_159_2                       1.000000
X_160_2                       1.000000
X_161_8                       1.000000
X_162_3                       1.000000
X_163_9                       1.000000
X_164_1                       1.000000
X_165_10                      1.000000
X_166_6                       1.000000
X_167_4                       1.000000
X_168_2                       1.000000
X_169_7                       1.000000
X_170_5                       1.000000
X_171_10                      1.000000
X_172_10                      1.000000
X_173_3                       1.000000
X_174_4                       1.000000
X_175_3                       1.000000
X_176_3                       1.000000
X_177_5                       1.000000
X_178_10                      1.000000
X_179_3                       1.000000
X_180_3                       1.000000
X_181_9                       1.000000
X_182_5                       1.000000
X_183_1                       1.000000
X_184_7                       1.000000
X_185_7                       1.000000
X_186_7                       1.000000
X_187_9                       1.000000
X_188_6                       1.000000
X_189_1                       1.000000
X_190_2                       1.000000
X_191_10                      1.000000
X_192_6                       1.000000
X_193_5                       1.000000
X_194_6                       1.000000
X_195_5                       1.000000
X_196_5                       1.000000
X_197_1                       1.000000
X_198_5                       1.000000
X_199_5                       1.000000
X_200_1                       1.000000
X_201_1                       1.000000
X_202_1                       1.000000
X_203_1                       1.000000
X_204_1                       1.000000
X_205_2                       1.000000
X_206_8                       1.000000
X_207_4                       1.000000
X_208_3                       1.000000
X_209_1                       1.000000
X_210_1                       1.000000
X_211_5                       1.000000
X_212_8                       1.000000
X_213_8                       1.000000
X_214_8                       1.000000
X_215_3                       1.000000
X_216_9                       1.000000
X_217_1                       1.000000
X_218_5                       1.000000
X_219_9                       1.000000
X_220_8                       1.000000
X_221_2                       1.000000
X_222_4                       1.000000
X_223_3                       1.000000
X_224_4                       1.000000
X_225_8                       1.000000
X_226_3                       1.000000
X_227_3                       1.000000
X_228_1                       1.000000
X_229_2                       1.000000
X_230_4                       1.000000
X_231_1                       1.000000
X_232_8                       1.000000
X_233_10                      1.000000
X_234_5                       1.000000
X_235_2                       1.000000
X_236_5                       1.000000
X_237_4                       1.000000
X_238_1                       1.000000
X_239_5                       1.000000
X_240_8                       1.000000
X_241_10                      1.000000
X_242_1                       1.000000
X_243_8                       1.000000
X_244_9                       1.000000
X_245_7                       1.000000
X_246_5                       1.000000
X_247_1                       1.000000
X_248_8                       1.000000
X_249_10                      1.000000
X_250_10                      1.000000
X_251_3                       1.000000
X_252_8                       1.000000
X_253_4                       1.000000
X_254_6                       1.000000
X_255_1                       1.000000
X_256_7                       1.000000
X_257_9                       1.000000
X_258_4                       1.000000
X_259_9                       1.000000
X_260_8                       1.000000
X_261_2                       1.000000
X_262_6                       1.000000
X_263_9                       1.000000
X_264_9                       1.000000
X_265_7                       1.000000
X_266_1                       1.000000
X_267_3                       1.000000
X_268_3                       1.000000
X_269_9                       1.000000
X_270_2                       1.000000
X_271_7                       1.000000
X_272_6                       1.000000
X_273_10                      1.000000
X_274_10                      1.000000
X_275_7                       1.000000
X_276_2                       1.000000
X_277_10                      1.000000
X_278_3                       1.000000
X_279_4                       1.000000
X_280_6                       1.000000
X_281_7                       1.000000
X_282_3                       1.000000
X_283_6                       1.000000
X_284_6                       1.000000
X_285_9                       1.000000
X_286_3                       1.000000
X_287_8                       1.000000
X_288_1                       1.000000
X_289_2                       1.000000
X_290_8                       1.000000
X_291_9                       1.000000
X_292_2                       1.000000
X_293_4                       1.000000
X_294_10                      1.000000
X_295_7                       1.000000
X_296_7                       1.000000
X_297_1                       1.000000
X_298_7                       1.000000
X_299_10                      1.000000
X_300_2                       1.000000
X_301_3                       1.000000
X_302_6                       1.000000
X_303_1                       1.000000
X_304_8                       1.000000
X_305_5                       1.000000
X_306_2                       1.000000
X_307_4                       1.000000
X_308_6                       1.000000
X_309_3                       1.000000
X_310_5                       1.000000
X_311_7                       1.000000
X_312_9                       1.000000
X_313_2                       1.000000
X_314_4                       1.000000
X_315_8                       1.000000
X_316_10                      1.000000
X_317_2                       1.000000
X_318_10                      1.000000
X_319_2                       1.000000
X_320_8                       1.000000
X_321_4                       1.000000
X_322_2                       1.000000
X_323_1                       1.000000
X_324_3                       1.000000
X_325_6                       1.000000
X_326_2                       1.000000
X_327_4                       1.000000
X_328_5                       1.000000
X_329_1                       1.000000
X_330_3                       1.000000
X_331_10                      1.000000
X_332_3                       1.000000
X_333_5                       1.000000
X_334_7                       1.000000
X_335_7                       1.000000
X_336_10                      1.000000
X_337_9                       1.000000
X_338_9                       1.000000
X_339_5                       1.000000
X_340_10                      1.000000
X_341_10                      1.000000
X_342_7                       1.000000
X_343_6                       1.000000
X_344_10                      1.000000
X_345_5                       1.000000
X_346_8                       1.000000
X_347_3                       1.000000
X_348_3                       1.000000
X_349_5                       1.000000
X_350_3                       1.000000
X_351_8                       1.000000
X_352_10                      1.000000
X_353_10                      1.000000
X_354_4                       1.000000
X_355_8                       1.000000
X_356_2                       1.000000
X_357_3                       1.000000
X_358_5                       1.000000
X_359_1                       1.000000
X_360_4                       1.000000
X_361_8                       1.000000
X_362_5                       1.000000
X_363_1                       1.000000
X_364_7                       1.000000
X_365_8                       1.000000
X_366_7                       1.000000
X_367_5                       1.000000
X_368_1                       1.000000
X_369_10                      1.000000
X_370_6                       1.000000
X_371_6                       1.000000
X_372_8                       1.000000
X_373_4                       1.000000
X_374_6                       1.000000
X_375_5                       1.000000
X_376_3                       1.000000
X_377_3                       1.000000
X_378_6                       1.000000
X_379_6                       1.000000
X_380_3                       1.000000
X_381_1                       1.000000
X_382_9                       1.000000
X_383_7                       1.000000
X_384_9                       1.000000
X_385_5                       1.000000
X_386_8                       1.000000
X_387_5                       1.000000
X_388_7                       1.000000
X_389_10                      1.000000
X_390_2                       1.000000
X_391_7                       1.000000
X_392_1                       1.000000
X_393_5                       1.000000
X_394_6                       1.000000
X_395_9                       1.000000
X_396_10                      1.000000
X_397_8                       1.000000
X_398_2                       1.000000
X_399_2                       1.000000
X_400_3                       1.000000
X_401_8                       1.000000
X_402_3                       1.000000
X_403_9                       1.000000
X_404_5                       1.000000
X_405_4                       1.000000
X_406_10                      1.000000
X_407_10                      1.000000
X_408_10                      1.000000
X_409_9                       1.000000
X_410_4                       1.000000
X_411_4                       1.000000
X_412_4                       1.000000
X_413_9                       1.000000
X_414_4                       1.000000
X_415_3                       1.000000
X_416_3                       1.000000
X_417_9                       1.000000
X_418_9                       1.000000
X_419_8                       1.000000
X_420_10                      1.000000
X_421_7                       1.000000
X_422_6                       1.000000
X_423_8                       1.000000
X_424_4                       1.000000
X_425_10                      1.000000
X_426_7                       1.000000
X_427_7                       1.000000
X_428_1                       1.000000
X_429_2                       1.000000
X_430_7                       1.000000
X_431_4                       1.000000
X_432_4                       1.000000
X_433_4                       1.000000
X_434_4                       1.000000
X_435_1                       1.000000
X_436_1                       1.000000
X_437_7                       1.000000
X_438_6                       1.000000
X_439_9                       1.000000
X_440_5                       1.000000
X_441_2                       1.000000
X_442_7                       1.000000
X_443_6                       1.000000
X_444_2                       1.000000
X_445_9                       1.000000
X_446_3                       1.000000
X_447_6                       1.000000
X_448_5                       1.000000
X_449_4                       1.000000
X_450_9                       1.000000
X_451_9                       1.000000
X_452_2                       1.000000
X_453_4                       1.000000
X_454_2                       1.000000
X_455_6                       1.000000
X_456_5                       1.000000
X_457_6                       1.000000
X_458_8                       1.000000
X_459_9                       1.000000
X_460_4                       1.000000
X_461_10                      1.000000
X_462_5                       1.000000
X_463_9                       1.000000
X_464_6                       1.000000
X_465_4                       1.000000
X_466_8                       1.000000
X_467_8                       1.000000
X_468_7                       1.000000
X_469_1                       1.000000
X_470_8                       1.000000
X_471_1                       1.000000
X_472_3                       1.000000
X_473_4                       1.000000
X_474_4                       1.000000
X_475_5                       1.000000
X_476_4                       1.000000
X_477_10                      1.000000
X_478_10                      1.000000
X_479_2                       1.000000
X_480_6                       1.000000
X_481_4                       1.000000
X_482_4                       1.000000
X_483_5                       1.000000
X_484_9                       1.000000
X_485_10                      1.000000
X_486_6                       1.000000
X_487_8                       1.000000
X_488_2                       1.000000
X_489_5                       1.000000
X_490_8                       1.000000
X_491_1                       1.000000
X_492_5                       1.000000
X_493_2                       1.000000
X_494_4                       1.000000
X_495_3                       1.000000
X_496_5                       1.000000
X_497_6                       1.000000
X_498_7                       1.000000
X_499_4                       1.000000
X_500_10                      1.000000
All other variables in the range 1-5001 are 0.
